c ---- [ banner ] ------------------------------------------------------------
c
c Kissat SAT Solver
c 
c Copyright (c) 2021-2022 Armin Biere University of Freiburg
c Copyright (c) 2019-2021 Armin Biere Johannes Kepler University Linz
c 
c Version 3.0.0 97917ddf2b12adc6f63c7b2a5a403a1ee7d81836
c gcc (Ubuntu 9.4.0-1ubuntu1~20.04.1) 9.4.0 -W -Wall -O3 -DNDEBUG
c Fri Oct 7 14:23:58 PDT 2022 Linux jap-Lenovo-Yoga-C740-15IML 5.15.0-48-generic x86_64
c
c ---- [ parsing ] -----------------------------------------------------------
c
c opened and reading DIMACS file:
c
c   Pigeon6Holes5
c
c parsed 'p cnf 30 81' header
c closing input after reading 810 bytes
c finished parsing after 0.00 seconds
c
c ---- [ solving ] -----------------------------------------------------------
c
c  seconds switched rate      trail variables
c         MB reductions conflicts glue  remaining
c          level restarts redundant irredundant
c
c *  0.00  1 0 0 0  0 0   0   0 0% 0 81 30 97%
c {  0.00  1 0 0 0  0 0   0   0 0% 0 81 30 97%
c i  0.00  1 4 0 0  0 1  35  34 95% 2 81 29 94%
c i  0.00  1 5 0 0 12 2  95  89 95% 3 81 28 90%
c }  0.00  1 5 0 0 12 2 165 157 96% 3 81 21 68%
c 0  0.00  1 5 0 0 12 2 165 157 96% 3 81 21 68%
c
c ---- [ result ] ------------------------------------------------------------
c
s UNSATISFIABLE
c
c ---- [ profiling ] ---------------------------------------------------------
c
c           0.00   86.92 %  search
c           0.00   80.53 %  focused
c           0.00    5.32 %  parse
c           0.00    0.00 %  simplify
c =============================================
c           0.00  100.00 %  total
c
c ---- [ statistics ] --------------------------------------------------------
c
c conflicts:                              165            66052.84 per second
c decisions:                              257                1.56 per conflict
c propagations:                          2102           841473    per second
c restarts:                                12               13.75 interval
c
c ---- [ resources ] ---------------------------------------------------------
c
c maximum-resident-set-size:           995328 bytes          1 MB
c process-time:                                              0.00 seconds
c
c ---- [ shutting down ] -----------------------------------------------------
c
c exit 20
